; benchmark generated from python API
(set-info :status unknown)
(declare-fun x_months () Int)
(declare-fun x_beta () Int)
(declare-fun y_months () Int)
(declare-fun y_beta () Int)
(assert
 (<= (- 1202) x_months))
(assert
 (>= 1209 x_months))
(assert
 (>= x_beta 0))
(assert
 (let ((?x1082 (+ x_months 24003)))
 (let ((?x4499 (- ?x1082 (* (div (- ?x1082 1) 12) 12))))
 (let ((?x4307 (ite (or (= ?x4499 4) (= ?x4499 6) (= ?x4499 9) (= ?x4499 11)) 30 31)))
 (let (($x3985 (and (= (mod (div (- ?x1082 1) 12) 4) 0) (and (distinct (mod (div (- ?x1082 1) 12) 100) 0) true))))
 (let ((?x4415 (ite (or $x3985 (= (mod (div (- ?x1082 1) 12) 400) 0)) 29 28)))
 (< x_beta (ite (= ?x4499 2) ?x4415 ?x4307))))))))
(assert
 (<= (- 1202) y_months))
(assert
 (>= 1209 y_months))
(assert
 (>= y_beta 0))
(assert
 (let ((?x4460 (+ y_months 24003)))
 (let ((?x4463 (- ?x4460 (* (div (- ?x4460 1) 12) 12))))
 (let ((?x3936 (ite (or (= ?x4463 4) (= ?x4463 6) (= ?x4463 9) (= ?x4463 11)) 30 31)))
 (let (($x4288 (and (= (mod (div (- ?x4460 1) 12) 4) 0) (and (distinct (mod (div (- ?x4460 1) 12) 100) 0) true))))
 (let ((?x4296 (ite (or $x4288 (= (mod (div (- ?x4460 1) 12) 400) 0)) 29 28)))
 (< y_beta (ite (= ?x4463 2) ?x4296 ?x3936))))))))
(assert
 (and (= x_months (- (+ (* 2022 12) 1) 24003)) (= 14 x_beta)))
(assert
 (let ((?x4321 (+ x_beta 1)))
 (let ((?x1805 (+ (+ x_months 13) 24003)))
 (let ((?x3182 (- ?x1805 (* (div (- ?x1805 1) 12) 12))))
 (let ((?x4166 (ite (or (= ?x3182 4) (= ?x3182 6) (= ?x3182 9) (= ?x3182 11)) 30 31)))
 (let (($x4149 (and (= (mod (div (- ?x1805 1) 12) 4) 0) (and (distinct (mod (div (- ?x1805 1) 12) 100) 0) true))))
 (let (($x764 (or $x4149 (= (mod (div (- ?x1805 1) 12) 400) 0))))
 (let ((?x4169 (ite (= ?x3182 2) (ite $x764 29 28) ?x4166)))
 (let ((?x4179 (ite (> 1 ?x4321) 1 (ite (> ?x4321 ?x4169) ?x4169 ?x4321))))
 (let ((?x4191 (ite (> 1 ?x4179) 1 (ite (> ?x4179 ?x4169) ?x4169 ?x4179))))
 (let ((?x4170 (ite (= 2 ?x3182) (ite $x764 31 31) (ite (= 1 ?x3182) (ite $x764 0 0) 0))))
 (let ((?x4184 (ite (= 4 ?x3182) (ite $x764 91 90) (ite (= 3 ?x3182) (ite $x764 60 59) ?x4170))))
 (let ((?x1949 (ite (= 6 ?x3182) (ite $x764 152 151) (ite (= 5 ?x3182) (ite $x764 121 120) ?x4184))))
 (let ((?x4426 (ite (= 8 ?x3182) (ite $x764 213 212) (ite (= 7 ?x3182) (ite $x764 182 181) ?x1949))))
 (let ((?x2158 (ite (= 10 ?x3182) (ite $x764 274 273) (ite (= 9 ?x3182) (ite $x764 244 243) ?x4426))))
 (let ((?x4636 (ite (= 12 ?x3182) (ite $x764 335 334) (ite (= 11 ?x3182) (ite $x764 305 304) ?x2158))))
 (let ((?x2633 (+ (* 365 (- (div (- ?x1805 1) 12) 1)) (div (- (div (- ?x1805 1) 12) 1) 4))))
 (let ((?x4168 (+ (- ?x2633 (div (- (div (- ?x1805 1) 12) 1) 100)) (div (- (div (- ?x1805 1) 12) 1) 400))))
 (let ((?x4606 (+ (+ (- (+ (+ ?x4168 ?x4636) (- ?x4191 1)) 730179) 40) 730179)))
 (let ((?x1051 (mod ?x4606 146097)))
 (let ((?x2953 (div ?x1051 36524)))
 (let ((?x3103 (ite (<= 4 ?x2953) 3 ?x2953)))
 (let ((?x3355 (- ?x1051 (* ?x3103 36524))))
 (let ((?x2303 (mod ?x3355 1461)))
 (let ((?x3711 (div ?x2303 365)))
 (let ((?x4581 (ite (<= 4 ?x3711) 3 ?x3711)))
 (let ((?x4635 (+ (+ (* (div ?x4606 146097) 400) (* ?x3103 100)) (* (div ?x3355 1461) 4))))
 (let ((?x3631 (+ (+ ?x4635 ?x4581) 1)))
 (let (($x2880 (or (and (= (mod ?x3631 4) 0) (and (distinct (mod ?x3631 100) 0) true)) (= (mod ?x3631 400) 0))))
 (let ((?x4588 (- ?x2303 (* ?x4581 365))))
 (let ((?x1965 (ite $x2880 31 31)))
 (let (($x4667 (>= ?x4588 ?x1965)))
 (let ((?x4221 (ite $x4667 (+ (- ?x4588 ?x1965) 1) (+ (- ?x4588 (ite $x2880 0 0)) 1))))
 (let ((?x3329 (ite $x2880 60 59)))
 (let (($x2005 (>= ?x4588 ?x3329)))
 (let ((?x2798 (ite $x2880 91 90)))
 (let (($x1774 (>= ?x4588 ?x2798)))
 (let ((?x4231 (ite $x1774 (+ (- ?x4588 ?x2798) 1) (ite $x2005 (+ (- ?x4588 ?x3329) 1) ?x4221))))
 (let ((?x4659 (ite $x2880 121 120)))
 (let (($x4672 (>= ?x4588 ?x4659)))
 (let ((?x4666 (ite $x2880 152 151)))
 (let (($x3218 (>= ?x4588 ?x4666)))
 (let ((?x4205 (ite $x3218 (+ (- ?x4588 ?x4666) 1) (ite $x4672 (+ (- ?x4588 ?x4659) 1) ?x4231))))
 (let ((?x294 (ite $x2880 182 181)))
 (let (($x4670 (>= ?x4588 ?x294)))
 (let ((?x1846 (ite $x2880 213 212)))
 (let (($x2013 (>= ?x4588 ?x1846)))
 (let ((?x3682 (ite $x2013 (+ (- ?x4588 ?x1846) 1) (ite $x4670 (+ (- ?x4588 ?x294) 1) ?x4205))))
 (let ((?x345 (ite $x2880 244 243)))
 (let (($x2515 (>= ?x4588 ?x345)))
 (let ((?x1019 (ite $x2880 274 273)))
 (let (($x1491 (>= ?x4588 ?x1019)))
 (let ((?x4228 (ite $x1491 (+ (- ?x4588 ?x1019) 1) (ite $x2515 (+ (- ?x4588 ?x345) 1) ?x3682))))
 (let ((?x4671 (ite $x2880 305 304)))
 (let (($x3671 (>= ?x4588 ?x4671)))
 (let ((?x2091 (ite $x2880 335 334)))
 (let (($x628 (>= ?x4588 ?x2091)))
 (let ((?x911 (ite $x628 (+ (- ?x4588 ?x2091) 1) (ite $x3671 (+ (- ?x4588 ?x4671) 1) ?x4228))))
 (let (($x4181 (= 40 0)))
 (let ((?x2672 (ite $x4672 5 (ite $x1774 4 (ite $x2005 3 (ite $x4667 2 1))))))
 (let ((?x3509 (ite $x2515 9 (ite $x2013 8 (ite $x4670 7 (ite $x3218 6 ?x2672))))))
 (let ((?x1875 (ite $x628 12 (ite $x3671 11 (ite $x1491 10 ?x3509)))))
 (let ((?x2056 (+ (* (ite $x4181 (div (- ?x1805 1) 12) ?x3631) 12) (ite $x4181 ?x3182 ?x1875))))
 (and (= y_months (- ?x2056 24003)) (= y_beta (- (ite $x4181 ?x4191 ?x911) 1))))))))))))))))))))))))))))))))))))))))))))))))))))))))))))))))))
(assert
 (let (($x3370 (and (= y_months (- (+ (* 2023 12) 2) 24003)) (= 23 y_beta))))
(not $x3370)))
(check-sat)
